Traveling Salesman Problem/TSP_generados/Aleatorio1620394626_17.tsp
NAME: Aleatorio1620394626_17.tsp
COMMENT: Randomly generated scenario
TYPE: TSP
DIMENSION: 17
EDGE_WEIGHT_TYPE: ATT
NODE_COORD_SECTION
1 8.03 44.98
2 29.08 28.73
3 22.21 7.43
4 46.64 27.67
5 45.2 27.44
6 35.56 43.26
7 22.98 9.11
8 42.12 41.04
9 22.84 49.92
10 18.66 14.46
11 6.48 3.95
12 40.17 9.22
13 32.14 9.33
14 21.45 27.75
15 32.72 19.67
16 19.63 28.64
17 40.47 5.17
