Traveling Salesman Problem/TSP_generados/Aleatorio1620394626_17.opt.tour
NAME: Aleatorio1620394626_17.opt.tour
COMMENT: Optimal solution for Aleatorio1620394626_17 (182.46527520240295)
TYPE: TOUR
DIMENSION: 17
TOUR_SECTION
1 9 6 8 4 5 12 17 13 7 3 11 10 15 2 14 16
-1
EOF
